(set-logic HORN)

(declare-fun __VERIFIER_assert (Int) Bool)
(declare-fun $main_inv457 (Int Int Int Int Int Int) Bool)
(declare-fun $assume_abort_if_not_if203 (Int) Bool)
(declare-fun $main_sum455 (Int Int Int Int Int Int) Bool)
(declare-fun $main_if205 (Int Int Int Int Int Int) Bool)
(declare-fun $assume_abort_if_not_pre (Int) Bool)
(declare-fun $main_if206 (Int Int Int Int Int Int) Bool)
(declare-fun $__VERIFIER_assert_ERROR (Int) Bool)
(declare-fun $__VERIFIER_assert_pre (Int) Bool)
(declare-fun $main_sum457 (Int Int Int Int Int Int) Bool)
(declare-fun $main_inv456 (Int Int Int Int Int Int) Bool)
(declare-fun assume_abort_if_not (Int) Bool)
(declare-fun $main_sum456 (Int Int Int Int Int Int) Bool)
(declare-fun $__VERIFIER_assert_if204 (Int) Bool)
(declare-fun $main_inv455 (Int Int Int Int Int Int) Bool)

; if else
(assert
  (forall ((cond Int))
    (=> (and (not (= cond 0))
             ($assume_abort_if_not_pre cond))
        ($assume_abort_if_not_if203 cond))))

; post assume_abort_if_not
(assert
  (forall ((cond5907 Int))
    (=> (and ($assume_abort_if_not_if203 cond5907))
        (assume_abort_if_not cond5907))))

; label ERROR
(assert
  (forall ((cond Int))
    (=> (and (= cond 0)
             ($__VERIFIER_assert_pre cond))
        ($__VERIFIER_assert_ERROR cond))))

; error
(assert
  (forall ((cond5908 Int))
    (=> (and ($__VERIFIER_assert_ERROR cond5908))
        false)))

; if else
(assert
  (forall ((cond Int))
    (=> (and (not (= cond 0))
             ($__VERIFIER_assert_pre cond))
        ($__VERIFIER_assert_if204 cond))))

; post __VERIFIER_assert
(assert
  (forall ((cond5909 Int))
    (=> (and ($__VERIFIER_assert_if204 cond5909))
        (__VERIFIER_assert cond5909))))

; loop entry $main_inv455
(assert
  (forall (($j583 Int) ($k581 Int) ($n582 Int) ($int5910 Int) ($tmp___1580 Int))
    (=> (and (<= (- 2147483648) $int5910)
             (<= $int5910 2147483647)
             (= $k581 0))
        ($main_inv455 0 $int5910 $tmp___1580 $k581 $n582 $j583))))

; loop term $main_sum455
(assert
  (forall (($k5815914 Int) ($tmp___15805913 Int) ($n5825915 Int) ($pvlen5795912 Int) ($i5785911 Int) ($int5917 Int) ($j5835916 Int))
    (=> (and (not (and (not (= $int5917 0)) (<= $i5785911 1000000)))
             (<= (- 2147483648) $int5917)
             (<= $int5917 2147483647)
             ($main_inv455 $i5785911 $pvlen5795912 $tmp___15805913 $k5815914 $n5825915 $j5835916))
        ($main_sum455 $i5785911 $pvlen5795912 $tmp___15805913 $k5815914 $n5825915 $j5835916))))

; forwards $main_inv455
(assert
  (forall (($k5815914 Int) ($tmp___15805913 Int) ($n5825915 Int) ($pvlen5795912 Int) ($i5785911 Int) ($int5917 Int) ($j5835916 Int))
    (=> (and (not (= $int5917 0))
             (<= $i5785911 1000000)
             (<= (- 2147483648) $int5917)
             (<= $int5917 2147483647)
             ($main_inv455 $i5785911 $pvlen5795912 $tmp___15805913 $k5815914 $n5825915 $j5835916))
        ($main_inv455 (+ $i5785911 1) $pvlen5795912 $tmp___15805913 $k5815914 $n5825915 $j5835916))))

; if then
(assert
  (forall (($n5825922 Int) ($k5815921 Int) ($j5835923 Int) ($i5785918 Int) ($tmp___15805920 Int) ($pvlen5795919 Int))
    (=> (and (> $i5785918 $pvlen5795919)
             ($main_sum455 $i5785918 $pvlen5795919 $tmp___15805920 $k5815921 $n5825922 $j5835923))
        ($main_if205 $i5785918 $i5785918 $tmp___15805920 $k5815921 $n5825922 $j5835923))))

; if else
(assert
  (forall (($n5825922 Int) ($k5815921 Int) ($j5835923 Int) ($i5785918 Int) ($tmp___15805920 Int) ($pvlen5795919 Int))
    (=> (and (not (> $i5785918 $pvlen5795919))
             ($main_sum455 $i5785918 $pvlen5795919 $tmp___15805920 $k5815921 $n5825922 $j5835923))
        ($main_if205 $i5785918 $pvlen5795919 $tmp___15805920 $k5815921 $n5825922 $j5835923))))

; loop entry $main_inv456
(assert
  (forall (($n5825928 Int) ($k5815927 Int) ($tmp___15805926 Int) ($j5835929 Int) ($i5785924 Int) ($pvlen5795925 Int))
    (=> (and ($main_if205 $i5785924 $pvlen5795925 $tmp___15805926 $k5815927 $n5825928 $j5835929))
        ($main_inv456 0 $pvlen5795925 $tmp___15805926 $k5815927 $n5825928 $j5835929))))

; loop term $main_sum456
(assert
  (forall (($pvlen5795931 Int) ($n5825934 Int) ($int5936 Int) ($i5785930 Int) ($tmp___15805932 Int) ($j5835935 Int) ($k5815933 Int))
    (=> (and (not (and (not (= $int5936 0)) (<= $i5785930 1000000)))
             (<= (- 2147483648) $int5936)
             (<= $int5936 2147483647)
             ($main_inv456 $i5785930 $pvlen5795931 $tmp___15805932 $k5815933 $n5825934 $j5835935))
        ($main_sum456 $i5785930 $pvlen5795931 $tmp___15805932 $k5815933 $n5825934 $j5835935))))

; forwards $main_inv456
(assert
  (forall (($pvlen5795931 Int) ($n5825934 Int) ($int5936 Int) ($i5785930 Int) ($tmp___15805932 Int) ($j5835935 Int) ($k5815933 Int))
    (=> (and (not (= $int5936 0))
             (<= $i5785930 1000000)
             (<= (- 2147483648) $int5936)
             (<= $int5936 2147483647)
             ($main_inv456 $i5785930 $pvlen5795931 $tmp___15805932 $k5815933 $n5825934 $j5835935))
        ($main_inv456 (+ $i5785930 1) $pvlen5795931 $i5785930 (+ $k5815933 1) $n5825934 $j5835935))))

; loop entry $main_inv457
(assert
  (forall (($tmp___15805939 Int) ($n5825941 Int) ($pvlen5795938 Int) ($k5815940 Int) ($j5835942 Int) ($i5785937 Int))
    (=> (and (= $j5835942 0)
             ($main_sum456 $i5785937 $pvlen5795938 $tmp___15805939 $k5815940 $n5825941 $j5835942))
        ($main_inv457 $i5785937 $pvlen5795938 $tmp___15805939 $k5815940 $i5785937 $j5835942))))

; loop term $main_sum457
(assert
  (forall (($i5785943 Int) ($pvlen5795944 Int) ($n5825947 Int) ($tmp___15805945 Int) ($j5835948 Int) ($k5815946 Int))
    (=> (and (= 1 0)
             ($main_inv457 $i5785943 $pvlen5795944 $tmp___15805945 $k5815946 $n5825947 $j5835948))
        ($main_sum457 $i5785943 $pvlen5795944 $tmp___15805945 $k5815946 $n5825947 $j5835948))))

; __VERIFIER_assert precondition
(assert
  (forall (($i5785943 Int) ($pvlen5795944 Int) ($n5825947 Int) ($tmp___15805945 Int) ($j5835948 Int) ($k5815946 Int))
    (=> (and (not (= 1 0))
             ($main_inv457 $i5785943 $pvlen5795944 $tmp___15805945 $k5815946 $n5825947 $j5835948))
        ($__VERIFIER_assert_pre (ite (>= $k5815946 0) 1 0)))))

; break $main_sum457
(assert
  (forall (($i5785943 Int) ($pvlen5795944 Int) ($n5825947 Int) ($tmp___15805945 Int) ($j5835948 Int) ($k5815946 Int))
    (=> (and (>= (+ $j5835948 1) $n5825947)
             (__VERIFIER_assert (ite (>= $k5815946 0) 1 0))
             (not (= 1 0))
             ($main_inv457 $i5785943 $pvlen5795944 $tmp___15805945 $k5815946 $n5825947 $j5835948))
        ($main_sum457 (- $i5785943 1) $pvlen5795944 $tmp___15805945 (- $k5815946 1) $n5825947 (+ $j5835948 1)))))

; if else
(assert
  (forall (($i5785943 Int) ($pvlen5795944 Int) ($n5825947 Int) ($tmp___15805945 Int) ($j5835948 Int) ($k5815946 Int))
    (=> (and (not (>= (+ $j5835948 1) $n5825947))
             (__VERIFIER_assert (ite (>= $k5815946 0) 1 0))
             (not (= 1 0))
             ($main_inv457 $i5785943 $pvlen5795944 $tmp___15805945 $k5815946 $n5825947 $j5835948))
        ($main_if206 (- $i5785943 1) $pvlen5795944 $tmp___15805945 (- $k5815946 1) $n5825947 (+ $j5835948 1)))))

; forwards $main_inv457
(assert
  (forall (($k5815952 Int) ($n5825953 Int) ($i5785949 Int) ($pvlen5795950 Int) ($tmp___15805951 Int) ($j5835954 Int))
    (=> (and ($main_if206 $i5785949 $pvlen5795950 $tmp___15805951 $k5815952 $n5825953 $j5835954))
        ($main_inv457 $i5785949 $pvlen5795950 $tmp___15805951 $k5815952 $n5825953 $j5835954))))

(check-sat)
